computational_data/solutions/ER_n30_p035_s9.sol
Optimal - objective value 7.00000000
     13 r_13                        1                       1
     24 r_24                        1                       1
     25 r_25                        1                       1
     40 b_10                        1                       1
     46 b_16                        1                       1
     48 b_18                        1                       1
     57 b_27                        1                       1
