computational_data/logs/ER_n30_p035_s9.log
Welcome to the CBC MILP Solver 
Version: 2.10.12 
Build Date: Aug 20 2024 

command line - /opt/homebrew/bin/cbc computational_data/lp/ER_n30_p035_s9.lp seconds 10.0 solve solu computational_data/solutions/ER_n30_p035_s9.sol (default strategy 1)
seconds was changed from 1e+100 to 10
Continuous objective value is 4.88475 - 0.00 seconds
Cgl0003I 0 fixed, 0 tightened bounds, 251 strengthened rows, 0 substitutions
Cgl0003I 0 fixed, 0 tightened bounds, 202 strengthened rows, 0 substitutions
Cgl0003I 0 fixed, 0 tightened bounds, 93 strengthened rows, 0 substitutions
Cgl0003I 0 fixed, 0 tightened bounds, 30 strengthened rows, 0 substitutions
Cgl0003I 0 fixed, 0 tightened bounds, 12 strengthened rows, 0 substitutions
Cgl0003I 0 fixed, 0 tightened bounds, 5 strengthened rows, 0 substitutions
Cgl0003I 0 fixed, 0 tightened bounds, 2 strengthened rows, 0 substitutions
Cgl0004I processed model has 256 rows, 60 columns (60 integer (60 of which binary)) and 1524 elements
Cutoff increment increased from 1e-05 to 0.9999
Cbc0038I Initial state - 38 integers unsatisfied sum - 4.88475
Cbc0038I Pass   1: suminf.    4.89834 (37) obj. 4.89834 iterations 7
Cbc0038I Pass   2: suminf.    7.50000 (20) obj. 9.5 iterations 67
Cbc0038I Pass   3: suminf.    1.33333 (4) obj. 9.66667 iterations 33
Cbc0038I Pass   4: suminf.    0.00000 (0) obj. 10 iterations 14
Cbc0038I Solution found of 10
Cbc0038I Before mini branch and bound, 19 integers at bound fixed and 0 continuous
Cbc0038I Full problem 256 rows 60 columns, reduced to 216 rows 41 columns - 3 fixed gives 62, 19 - ok now
Cbc0038I Full problem 256 rows 60 columns, reduced to 58 rows 18 columns
Cbc0038I Mini branch and bound improved solution from 10 to 9 (0.02 seconds)
Cbc0038I Round again with cutoff of 7.68856
Cbc0038I Pass   5: suminf.    4.89834 (37) obj. 4.89834 iterations 0
Cbc0038I Pass   6: suminf.    6.00000 (12) obj. 7 iterations 72
Cbc0038I Pass   7: suminf.    3.31144 (15) obj. 7.68856 iterations 43
Cbc0038I Pass   8: suminf.    2.76286 (20) obj. 7.68856 iterations 16
Cbc0038I Pass   9: suminf.    2.49179 (16) obj. 7.68856 iterations 65
Cbc0038I Pass  10: suminf.    2.31144 (12) obj. 7.68856 iterations 10
Cbc0038I Pass  11: suminf.    2.85523 (16) obj. 7.68856 iterations 45
Cbc0038I Pass  12: suminf.    2.17261 (13) obj. 7.68856 iterations 27
Cbc0038I Pass  13: suminf.    3.57096 (18) obj. 7.68856 iterations 39
Cbc0038I Pass  14: suminf.    2.47091 (16) obj. 7.68856 iterations 45
Cbc0038I Pass  15: suminf.    2.11144 (9) obj. 7.68856 iterations 15
Cbc0038I Pass  16: suminf.    3.50000 (7) obj. 7.5 iterations 46
Cbc0038I Pass  17: suminf.    3.09091 (12) obj. 7.18182 iterations 22
Cbc0038I Pass  18: suminf.    2.81081 (15) obj. 7.35135 iterations 18
Cbc0038I Pass  19: suminf.    1.93431 (11) obj. 7.68856 iterations 19
Cbc0038I Pass  20: suminf.    0.93431 (14) obj. 7.68856 iterations 34
Cbc0038I Pass  21: suminf.    0.86459 (22) obj. 7.68856 iterations 9
Cbc0038I Pass  22: suminf.    3.53333 (16) obj. 6.93333 iterations 62
Cbc0038I Pass  23: suminf.    3.00000 (14) obj. 6.6 iterations 12
Cbc0038I Pass  24: suminf.    3.62287 (12) obj. 7.68856 iterations 50
Cbc0038I Pass  25: suminf.    2.85430 (12) obj. 7.68856 iterations 20
Cbc0038I Pass  26: suminf.    2.52499 (22) obj. 7.68856 iterations 18
Cbc0038I Pass  27: suminf.    1.31144 (4) obj. 7.68856 iterations 25
Cbc0038I Pass  28: suminf.    1.33333 (4) obj. 7.66667 iterations 22
Cbc0038I Pass  29: suminf.    6.06569 (19) obj. 7.68856 iterations 56
Cbc0038I Pass  30: suminf.    3.40000 (15) obj. 7 iterations 44
Cbc0038I Pass  31: suminf.    3.48856 (16) obj. 7.68856 iterations 62
Cbc0038I Pass  32: suminf.    2.26229 (16) obj. 7.68856 iterations 37
Cbc0038I Pass  33: suminf.    1.32360 (13) obj. 7.68856 iterations 90
Cbc0038I Pass  34: suminf.    0.78678 (19) obj. 7.68856 iterations 32
Cbc0038I No solution found this major pass
Cbc0038I Before mini branch and bound, 0 integers at bound fixed and 0 continuous
Cbc0038I Full problem 256 rows 60 columns, reduced to 256 rows 60 columns - 4 fixed gives 95, 25 - ok now
Cbc0038I Full problem 256 rows 60 columns, reduced to 62 rows 17 columns
Cbc0038I Mini branch and bound did not improve solution (0.06 seconds)
Cbc0038I After 0.06 seconds - Feasibility pump exiting with objective of 9 - took 0.05 seconds
Cbc0012I Integer solution of 9 found by feasibility pump after 0 iterations and 0 nodes (0.06 seconds)
Cbc0038I Full problem 256 rows 60 columns, reduced to 206 rows 38 columns - 4 fixed gives 50, 16 - ok now
Cbc0031I 5 added rows had average density of 60
Cbc0013I At root node, 5 cuts changed objective from 4.8847481 to 5.0631661 in 100 passes
Cbc0014I Cut generator 0 (Probing) - 0 row cuts average 0.0 elements, 0 column cuts (0 active)  in 0.040 seconds - new frequency is -100
Cbc0014I Cut generator 1 (Gomory) - 828 row cuts average 60.0 elements, 0 column cuts (0 active)  in 0.027 seconds - new frequency is -100
Cbc0014I Cut generator 2 (Knapsack) - 0 row cuts average 0.0 elements, 0 column cuts (0 active)  in 0.005 seconds - new frequency is -100
Cbc0014I Cut generator 3 (Clique) - 0 row cuts average 0.0 elements, 0 column cuts (0 active)  in 0.006 seconds - new frequency is -100
Cbc0014I Cut generator 4 (MixedIntegerRounding2) - 7 row cuts average 60.0 elements, 0 column cuts (0 active)  in 0.019 seconds - new frequency is -100
Cbc0014I Cut generator 5 (FlowCover) - 0 row cuts average 0.0 elements, 0 column cuts (0 active)  in 0.001 seconds - new frequency is -100
Cbc0010I After 0 nodes, 1 on tree, 9 best solution, best possible 5.0631661 (0.26 seconds)
Cbc0012I Integer solution of 8 found by DiveCoefficient after 3951 iterations and 3 nodes (0.29 seconds)
Cbc0016I Integer solution of 7 found by strong branching after 4150 iterations and 12 nodes (0.32 seconds)
Cbc0001I Search completed - best objective 7, took 5114 iterations and 36 nodes (0.40 seconds)
Cbc0032I Strong branching done 670 times (13258 iterations), fathomed 7 nodes and fixed 3 variables
Cbc0035I Maximum depth 9, 98 variables fixed on reduced cost
Cuts at root node changed objective from 4.88475 to 5.06317
Probing was tried 100 times and created 0 cuts of which 0 were active after adding rounds of cuts (0.040 seconds)
Gomory was tried 100 times and created 828 cuts of which 0 were active after adding rounds of cuts (0.027 seconds)
Knapsack was tried 100 times and created 0 cuts of which 0 were active after adding rounds of cuts (0.005 seconds)
Clique was tried 100 times and created 0 cuts of which 0 were active after adding rounds of cuts (0.006 seconds)
MixedIntegerRounding2 was tried 100 times and created 7 cuts of which 0 were active after adding rounds of cuts (0.019 seconds)
FlowCover was tried 100 times and created 0 cuts of which 0 were active after adding rounds of cuts (0.001 seconds)
TwoMirCuts was tried 1 times and created 0 cuts of which 0 were active after adding rounds of cuts (0.001 seconds)
ZeroHalf was tried 1 times and created 0 cuts of which 0 were active after adding rounds of cuts (0.001 seconds)

Result - Optimal solution found

Objective value:                7.00000000
Enumerated nodes:               36
Total iterations:               5114
Time (CPU seconds):             0.40
Time (Wallclock seconds):       0.42

Total time (CPU seconds):       0.40   (Wallclock seconds):       0.42

